GLPSOL--GLPK LP/MIP Solver 5.0
Parameter(s) specified in the command line:
 --model plan.mod --output out/plan.txt
Reading model section from plan.mod...
Reading data section from plan.mod...
99 lines were read
Generating satisfaction...
Generating def_time_table...
Generating one_group_per_course...
Generating max_four_hours_per_day...
Generating lunch_break...
Model has been successfully generated
GLPK Integer Optimizer 5.0
256 rows, 260 columns, 403 non-zeros
260 integer variables, all of which are binary
Preprocessing...
2 hidden covering inequaliti(es) were detected
71 rows, 81 columns, 205 non-zeros
81 integer variables, all of which are binary
Scaling...
 A: min|aij| =  1.000e+00  max|aij| =  6.000e+00  ratio =  6.000e+00
Problem data seem to be well scaled
Constructing initial basis...
Size of triangular part is 71
Solving LP relaxation...
GLPK Simplex Optimizer 5.0
71 rows, 81 columns, 205 non-zeros
      0: obj =   2.800000000e+01 inf =   6.000e+00 (5)
      2: obj =   3.133333333e+01 inf =   0.000e+00 (0)
*     8: obj =   3.800000000e+01 inf =   0.000e+00 (0)
OPTIMAL LP SOLUTION FOUND
Integer optimization begins...
Long-step dual simplex will be used
+     8: mip =     not found yet <=              +inf        (1; 0)
Solution found by heuristic: 37
+    11: mip =   3.700000000e+01 <=     tree is empty   0.0% (0; 5)
INTEGER OPTIMAL SOLUTION FOUND
Time used:   0.0 secs
Memory used: 0.5 Mb (487760 bytes)

ZAPISANO NA KURSY
Algebra: III [(3) 10.000000-12.000000]
Analiza: II [(2) 10.000000-12.000000]
Fizyka: IV [(4) 17.000000-20.000000]
Mineraly: I [(1) 8.000000-10.000000]
Organiczna: II [(1) 10.500000-12.000000]

Model has been successfully processed
Writing MIP solution to 'out/plan.txt'...
